(set-logic QF_FPABV)
(declare-fun b8 () (_ FP 8 24))
(declare-fun b20 () (_ FP 8 24))
(declare-fun b23 () (_ FP 8 24))
(declare-fun b13 () (_ FP 11 53))
(define-fun .3 () RoundingMode roundNearestTiesToEven)
(define-fun .9 () (_ FP 8 24) b8)
(define-fun .10 () (_ FP 8 24) b20)
(define-fun .11 () Bool (<= .9 .10))
(define-fun .12 () (_ FP 8 24) (* .3 .9 .9))
(define-fun .13 () (_ FP 8 24) (+ .3 .9 .12))
(define-fun .14 () (_ FP 11 53) ((_ asFloat 11 53) .3 .13))
(define-fun .15 () (_ FP 11 53) b13)
(define-fun .16 () Bool (< .14 .15))
(define-fun .17 () Bool (and .11 .16))
(define-fun .18 () (_ FP 8 24) b23)
(define-fun .19 () Bool (<= .18 .9))
(define-fun .20 () Bool (and .17 .19))
(assert .20)
(check-sat)
